0 7780775
325 7426096
650 7348330
975 7293977
1300 7266680
1625 7241855
1950 7214001
2275 7190771
2600 7166506
2925 7145970
3250 7128802
3575 7117589
3900 7107906
4225 7103947
4550 7102551
4875 7101689
5200 7100701
5525 7099875
5850 7099791
6175 7099762
